p cnf 256 1034
1 0
-2 0
-3 0
-4 0
25 5 0
-25 -5 0
5 6 7 8 0
-145 -146 0
-147 -148 0
-5 145 0
-5 147 0
-6 145 0
-6 148 0
-7 146 0
-7 147 0
-8 146 0
-8 148 0
-5 1 9 0
-5 1 29 0
-5 9 29 0
-6 2 10 0
-6 2 30 0
-6 10 30 0
-7 3 11 0
-7 3 31 0
-7 11 31 0
-8 4 12 0
-8 4 32 0
-8 12 32 0
-5 -1 -9 -29 0
-6 -2 -10 -30 0
-7 -3 -11 -31 0
-8 -4 -12 -32 0
9 10 11 12 0
-149 -150 0
-151 -152 0
-9 149 0
-9 151 0
-10 149 0
-10 152 0
-11 150 0
-11 151 0
-12 150 0
-12 152 0
-9 5 13 0
-9 5 33 0
-9 13 33 0
-10 6 14 0
-10 6 34 0
-10 14 34 0
-11 7 15 0
-11 7 35 0
-11 15 35 0
-12 8 16 0
-12 8 36 0
-12 16 36 0
-9 -5 -13 -33 0
-10 -6 -14 -34 0
-11 -7 -15 -35 0
-12 -8 -16 -36 0
13 14 15 16 0
-153 -154 0
-155 -156 0
-13 153 0
-13 155 0
-14 153 0
-14 156 0
-15 154 0
-15 155 0
-16 154 0
-16 156 0
-13 9 17 0
-13 9 37 0
-13 17 37 0
-14 10 18 0
-14 10 38 0
-14 18 38 0
-15 11 19 0
-15 11 39 0
-15 19 39 0
-16 12 20 0
-16 12 40 0
-16 20 40 0
-13 -9 -17 -37 0
-14 -10 -18 -38 0
-15 -11 -19 -39 0
-16 -12 -20 -40 0
17 18 19 20 0
-157 -158 0
-159 -160 0
-17 157 0
-17 159 0
-18 157 0
-18 160 0
-19 158 0
-19 159 0
-20 158 0
-20 160 0
-17 13 21 0
-17 13 41 0
-17 21 41 0
-18 14 22 0
-18 14 42 0
-18 22 42 0
-19 15 23 0
-19 15 43 0
-19 23 43 0
-20 16 24 0
-20 16 44 0
-20 24 44 0
-17 -13 -21 -41 0
-18 -14 -22 -42 0
-19 -15 -23 -43 0
-20 -16 -24 -44 0
21 22 23 24 0
-161 -162 0
-163 -164 0
-21 161 0
-21 163 0
-22 161 0
-22 164 0
-23 162 0
-23 163 0
-24 162 0
-24 164 0
-21 45 0
-21 17 0
-22 46 0
-22 18 0
-23 47 0
-23 19 0
-24 48 0
-24 20 0
25 26 27 28 0
-165 -166 0
-167 -168 0
-25 165 0
-25 167 0
-26 165 0
-26 168 0
-27 166 0
-27 167 0
-28 166 0
-28 168 0
-25 49 29 0
-25 49 1 0
-25 29 1 0
-26 50 30 0
-26 50 2 0
-26 30 2 0
-27 51 31 0
-27 51 3 0
-27 31 3 0
-28 52 32 0
-28 52 4 0
-28 32 4 0
-25 -49 -29 -1 0
-26 -50 -30 -2 0
-27 -51 -31 -3 0
-28 -52 -32 -4 0
29 30 31 32 0
-169 -170 0
-171 -172 0
-29 169 0
-29 171 0
-30 169 0
-30 172 0
-31 170 0
-31 171 0
-32 170 0
-32 172 0
-29 53 33 5 0
-29 53 33 25 0
-29 53 5 25 0
-29 33 5 25 0
-30 54 34 6 0
-30 54 34 26 0
-30 54 6 26 0
-30 34 6 26 0
-31 55 35 7 0
-31 55 35 27 0
-31 55 7 27 0
-31 35 7 27 0
-32 56 36 8 0
-32 56 36 28 0
-32 56 8 28 0
-32 36 8 28 0
-29 -53 -33 -5 0
-29 -53 -33 -25 0
-29 -53 -5 -25 0
-29 -33 -5 -25 0
-30 -54 -34 -6 0
-30 -54 -34 -26 0
-30 -54 -6 -26 0
-30 -34 -6 -26 0
-31 -55 -35 -7 0
-31 -55 -35 -27 0
-31 -55 -7 -27 0
-31 -35 -7 -27 0
-32 -56 -36 -8 0
-32 -56 -36 -28 0
-32 -56 -8 -28 0
-32 -36 -8 -28 0
36 0
-33 0
-34 0
-35 0
60 40 12 32 0
-60 -40 0
-60 -12 0
-60 -32 0
-40 -12 0
-40 -32 0
-12 -32 0
37 38 39 40 0
-173 -174 0
-175 -176 0
-37 173 0
-37 175 0
-38 173 0
-38 176 0
-39 174 0
-39 175 0
-40 174 0
-40 176 0
-37 61 41 13 0
-37 61 41 33 0
-37 61 13 33 0
-37 41 13 33 0
-38 62 42 14 0
-38 62 42 34 0
-38 62 14 34 0
-38 42 14 34 0
-39 63 43 15 0
-39 63 43 35 0
-39 63 15 35 0
-39 43 15 35 0
-40 64 44 16 0
-40 64 44 36 0
-40 64 16 36 0
-40 44 16 36 0
-37 -61 -41 -13 0
-37 -61 -41 -33 0
-37 -61 -13 -33 0
-37 -41 -13 -33 0
-38 -62 -42 -14 0
-38 -62 -42 -34 0
-38 -62 -14 -34 0
-38 -42 -14 -34 0
-39 -63 -43 -15 0
-39 -63 -43 -35 0
-39 -63 -15 -35 0
-39 -43 -15 -35 0
-40 -64 -44 -16 0
-40 -64 -44 -36 0
-40 -64 -16 -36 0
-40 -44 -16 -36 0
41 42 43 44 0
-177 -178 0
-179 -180 0
-41 177 0
-41 179 0
-42 177 0
-42 180 0
-43 178 0
-43 179 0
-44 178 0
-44 180 0
-41 65 45 17 0
-41 65 45 37 0
-41 65 17 37 0
-41 45 17 37 0
-42 66 46 18 0
-42 66 46 38 0
-42 66 18 38 0
-42 46 18 38 0
-43 67 47 19 0
-43 67 47 39 0
-43 67 19 39 0
-43 47 19 39 0
-44 68 48 20 0
-44 68 48 40 0
-44 68 20 40 0
-44 48 20 40 0
-41 -65 -45 -17 0
-41 -65 -45 -37 0
-41 -65 -17 -37 0
-41 -45 -17 -37 0
-42 -66 -46 -18 0
-42 -66 -46 -38 0
-42 -66 -18 -38 0
-42 -46 -18 -38 0
-43 -67 -47 -19 0
-43 -67 -47 -39 0
-43 -67 -19 -39 0
-43 -47 -19 -39 0
-44 -68 -48 -20 0
-44 -68 -48 -40 0
-44 -68 -20 -40 0
-44 -48 -20 -40 0
45 46 47 48 0
-181 -182 0
-183 -184 0
-45 181 0
-45 183 0
-46 181 0
-46 184 0
-47 182 0
-47 183 0
-48 182 0
-48 184 0
-45 69 41 0
-45 69 21 0
-45 41 21 0
-46 70 42 0
-46 70 22 0
-46 42 22 0
-47 71 43 0
-47 71 23 0
-47 43 23 0
-48 72 44 0
-48 72 24 0
-48 44 24 0
-45 -69 -41 -21 0
-46 -70 -42 -22 0
-47 -71 -43 -23 0
-48 -72 -44 -24 0
49 50 51 52 0
-185 -186 0
-187 -188 0
-49 185 0
-49 187 0
-50 185 0
-50 188 0
-51 186 0
-51 187 0
-52 186 0
-52 188 0
-49 73 53 0
-49 73 25 0
-49 53 25 0
-50 74 54 0
-50 74 26 0
-50 54 26 0
-51 75 55 0
-51 75 27 0
-51 55 27 0
-52 76 56 0
-52 76 28 0
-52 56 28 0
-49 -73 -53 -25 0
-50 -74 -54 -26 0
-51 -75 -55 -27 0
-52 -76 -56 -28 0
53 54 55 56 0
-189 -190 0
-191 -192 0
-53 189 0
-53 191 0
-54 189 0
-54 192 0
-55 190 0
-55 191 0
-56 190 0
-56 192 0
-53 77 57 29 0
-53 77 57 49 0
-53 77 29 49 0
-53 57 29 49 0
-54 78 58 30 0
-54 78 58 50 0
-54 78 30 50 0
-54 58 30 50 0
-55 79 59 31 0
-55 79 59 51 0
-55 79 31 51 0
-55 59 31 51 0
-56 80 60 32 0
-56 80 60 52 0
-56 80 32 52 0
-56 60 32 52 0
-53 -77 -57 -29 0
-53 -77 -57 -49 0
-53 -77 -29 -49 0
-53 -57 -29 -49 0
-54 -78 -58 -30 0
-54 -78 -58 -50 0
-54 -78 -30 -50 0
-54 -58 -30 -50 0
-55 -79 -59 -31 0
-55 -79 -59 -51 0
-55 -79 -31 -51 0
-55 -59 -31 -51 0
-56 -80 -60 -32 0
-56 -80 -60 -52 0
-56 -80 -32 -52 0
-56 -60 -32 -52 0
57 58 59 60 0
-193 -194 0
-195 -196 0
-57 193 0
-57 195 0
-58 193 0
-58 196 0
-59 194 0
-59 195 0
-60 194 0
-60 196 0
-57 81 61 33 0
-57 81 61 53 0
-57 81 33 53 0
-57 61 33 53 0
-58 82 62 34 0
-58 82 62 54 0
-58 82 34 54 0
-58 62 34 54 0
-59 83 63 35 0
-59 83 63 55 0
-59 83 35 55 0
-59 63 35 55 0
-60 84 64 36 0
-60 84 64 56 0
-60 84 36 56 0
-60 64 36 56 0
-57 -81 -61 -33 0
-57 -81 -61 -53 0
-57 -81 -33 -53 0
-57 -61 -33 -53 0
-58 -82 -62 -34 0
-58 -82 -62 -54 0
-58 -82 -34 -54 0
-58 -62 -34 -54 0
-59 -83 -63 -35 0
-59 -83 -63 -55 0
-59 -83 -35 -55 0
-59 -63 -35 -55 0
-60 -84 -64 -36 0
-60 -84 -64 -56 0
-60 -84 -36 -56 0
-60 -64 -36 -56 0
61 62 63 64 0
-197 -198 0
-199 -200 0
-61 197 0
-61 199 0
-62 197 0
-62 200 0
-63 198 0
-63 199 0
-64 198 0
-64 200 0
-61 85 65 37 0
-61 85 65 57 0
-61 85 37 57 0
-61 65 37 57 0
-62 86 66 38 0
-62 86 66 58 0
-62 86 38 58 0
-62 66 38 58 0
-63 87 67 39 0
-63 87 67 59 0
-63 87 39 59 0
-63 67 39 59 0
-64 88 68 40 0
-64 88 68 60 0
-64 88 40 60 0
-64 68 40 60 0
-61 -85 -65 -37 0
-61 -85 -65 -57 0
-61 -85 -37 -57 0
-61 -65 -37 -57 0
-62 -86 -66 -38 0
-62 -86 -66 -58 0
-62 -86 -38 -58 0
-62 -66 -38 -58 0
-63 -87 -67 -39 0
-63 -87 -67 -59 0
-63 -87 -39 -59 0
-63 -67 -39 -59 0
-64 -88 -68 -40 0
-64 -88 -68 -60 0
-64 -88 -40 -60 0
-64 -68 -40 -60 0
65 66 67 68 0
-201 -202 0
-203 -204 0
-65 201 0
-65 203 0
-66 201 0
-66 204 0
-67 202 0
-67 203 0
-68 202 0
-68 204 0
-65 89 69 41 0
-65 89 69 61 0
-65 89 41 61 0
-65 69 41 61 0
-66 90 70 42 0
-66 90 70 62 0
-66 90 42 62 0
-66 70 42 62 0
-67 91 71 43 0
-67 91 71 63 0
-67 91 43 63 0
-67 71 43 63 0
-68 92 72 44 0
-68 92 72 64 0
-68 92 44 64 0
-68 72 44 64 0
-65 -89 -69 -41 0
-65 -89 -69 -61 0
-65 -89 -41 -61 0
-65 -69 -41 -61 0
-66 -90 -70 -42 0
-66 -90 -70 -62 0
-66 -90 -42 -62 0
-66 -70 -42 -62 0
-67 -91 -71 -43 0
-67 -91 -71 -63 0
-67 -91 -43 -63 0
-67 -71 -43 -63 0
-68 -92 -72 -44 0
-68 -92 -72 -64 0
-68 -92 -44 -64 0
-68 -72 -44 -64 0
69 70 71 72 0
-205 -206 0
-207 -208 0
-69 205 0
-69 207 0
-70 205 0
-70 208 0
-71 206 0
-71 207 0
-72 206 0
-72 208 0
-69 93 65 0
-69 93 45 0
-69 65 45 0
-70 94 66 0
-70 94 46 0
-70 66 46 0
-71 95 67 0
-71 95 47 0
-71 67 47 0
-72 96 68 0
-72 96 48 0
-72 68 48 0
-69 -93 -65 -45 0
-70 -94 -66 -46 0
-71 -95 -67 -47 0
-72 -96 -68 -48 0
73 74 75 76 0
-209 -210 0
-211 -212 0
-73 209 0
-73 211 0
-74 209 0
-74 212 0
-75 210 0
-75 211 0
-76 210 0
-76 212 0
-73 97 77 0
-73 97 49 0
-73 77 49 0
-74 98 78 0
-74 98 50 0
-74 78 50 0
-75 99 79 0
-75 99 51 0
-75 79 51 0
-76 100 80 0
-76 100 52 0
-76 80 52 0
-73 -97 -77 -49 0
-74 -98 -78 -50 0
-75 -99 -79 -51 0
-76 -100 -80 -52 0
77 78 79 80 0
-213 -214 0
-215 -216 0
-77 213 0
-77 215 0
-78 213 0
-78 216 0
-79 214 0
-79 215 0
-80 214 0
-80 216 0
-77 101 81 53 0
-77 101 81 73 0
-77 101 53 73 0
-77 81 53 73 0
-78 102 82 54 0
-78 102 82 74 0
-78 102 54 74 0
-78 82 54 74 0
-79 103 83 55 0
-79 103 83 75 0
-79 103 55 75 0
-79 83 55 75 0
-80 104 84 56 0
-80 104 84 76 0
-80 104 56 76 0
-80 84 56 76 0
-77 -101 -81 -53 0
-77 -101 -81 -73 0
-77 -101 -53 -73 0
-77 -81 -53 -73 0
-78 -102 -82 -54 0
-78 -102 -82 -74 0
-78 -102 -54 -74 0
-78 -82 -54 -74 0
-79 -103 -83 -55 0
-79 -103 -83 -75 0
-79 -103 -55 -75 0
-79 -83 -55 -75 0
-80 -104 -84 -56 0
-80 -104 -84 -76 0
-80 -104 -56 -76 0
-80 -84 -56 -76 0
81 0
-82 0
-83 0
-84 0
105 85 57 77 0
-105 -85 0
-105 -57 0
-105 -77 0
-85 -57 0
-85 -77 0
-57 -77 0
85 86 87 88 0
-217 -218 0
-219 -220 0
-85 217 0
-85 219 0
-86 217 0
-86 220 0
-87 218 0
-87 219 0
-88 218 0
-88 220 0
-85 109 89 61 0
-85 109 89 81 0
-85 109 61 81 0
-85 89 61 81 0
-86 110 90 62 0
-86 110 90 82 0
-86 110 62 82 0
-86 90 62 82 0
-87 111 91 63 0
-87 111 91 83 0
-87 111 63 83 0
-87 91 63 83 0
-88 112 92 64 0
-88 112 92 84 0
-88 112 64 84 0
-88 92 64 84 0
-85 -109 -89 -61 0
-85 -109 -89 -81 0
-85 -109 -61 -81 0
-85 -89 -61 -81 0
-86 -110 -90 -62 0
-86 -110 -90 -82 0
-86 -110 -62 -82 0
-86 -90 -62 -82 0
-87 -111 -91 -63 0
-87 -111 -91 -83 0
-87 -111 -63 -83 0
-87 -91 -63 -83 0
-88 -112 -92 -64 0
-88 -112 -92 -84 0
-88 -112 -64 -84 0
-88 -92 -64 -84 0
89 90 91 92 0
-221 -222 0
-223 -224 0
-89 221 0
-89 223 0
-90 221 0
-90 224 0
-91 222 0
-91 223 0
-92 222 0
-92 224 0
-89 113 93 65 0
-89 113 93 85 0
-89 113 65 85 0
-89 93 65 85 0
-90 114 94 66 0
-90 114 94 86 0
-90 114 66 86 0
-90 94 66 86 0
-91 115 95 67 0
-91 115 95 87 0
-91 115 67 87 0
-91 95 67 87 0
-92 116 96 68 0
-92 116 96 88 0
-92 116 68 88 0
-92 96 68 88 0
-89 -113 -93 -65 0
-89 -113 -93 -85 0
-89 -113 -65 -85 0
-89 -93 -65 -85 0
-90 -114 -94 -66 0
-90 -114 -94 -86 0
-90 -114 -66 -86 0
-90 -94 -66 -86 0
-91 -115 -95 -67 0
-91 -115 -95 -87 0
-91 -115 -67 -87 0
-91 -95 -67 -87 0
-92 -116 -96 -68 0
-92 -116 -96 -88 0
-92 -116 -68 -88 0
-92 -96 -68 -88 0
93 94 95 96 0
-225 -226 0
-227 -228 0
-93 225 0
-93 227 0
-94 225 0
-94 228 0
-95 226 0
-95 227 0
-96 226 0
-96 228 0
-93 117 89 0
-93 117 69 0
-93 89 69 0
-94 118 90 0
-94 118 70 0
-94 90 70 0
-95 119 91 0
-95 119 71 0
-95 91 71 0
-96 120 92 0
-96 120 72 0
-96 92 72 0
-93 -117 -89 -69 0
-94 -118 -90 -70 0
-95 -119 -91 -71 0
-96 -120 -92 -72 0
97 98 99 100 0
-229 -230 0
-231 -232 0
-97 229 0
-97 231 0
-98 229 0
-98 232 0
-99 230 0
-99 231 0
-100 230 0
-100 232 0
-97 121 101 0
-97 121 73 0
-97 101 73 0
-98 122 102 0
-98 122 74 0
-98 102 74 0
-99 123 103 0
-99 123 75 0
-99 103 75 0
-100 124 104 0
-100 124 76 0
-100 104 76 0
-97 -121 -101 -73 0
-98 -122 -102 -74 0
-99 -123 -103 -75 0
-100 -124 -104 -76 0
101 102 103 104 0
-233 -234 0
-235 -236 0
-101 233 0
-101 235 0
-102 233 0
-102 236 0
-103 234 0
-103 235 0
-104 234 0
-104 236 0
-101 125 105 77 0
-101 125 105 97 0
-101 125 77 97 0
-101 105 77 97 0
-102 126 106 78 0
-102 126 106 98 0
-102 126 78 98 0
-102 106 78 98 0
-103 127 107 79 0
-103 127 107 99 0
-103 127 79 99 0
-103 107 79 99 0
-104 128 108 80 0
-104 128 108 100 0
-104 128 80 100 0
-104 108 80 100 0
-101 -125 -105 -77 0
-101 -125 -105 -97 0
-101 -125 -77 -97 0
-101 -105 -77 -97 0
-102 -126 -106 -78 0
-102 -126 -106 -98 0
-102 -126 -78 -98 0
-102 -106 -78 -98 0
-103 -127 -107 -79 0
-103 -127 -107 -99 0
-103 -127 -79 -99 0
-103 -107 -79 -99 0
-104 -128 -108 -80 0
-104 -128 -108 -100 0
-104 -128 -80 -100 0
-104 -108 -80 -100 0
106 0
-105 0
-107 0
-108 0
130 110 82 102 0
-130 -110 0
-130 -82 0
-130 -102 0
-110 -82 0
-110 -102 0
-82 -102 0
109 110 111 112 0
-237 -238 0
-239 -240 0
-109 237 0
-109 239 0
-110 237 0
-110 240 0
-111 238 0
-111 239 0
-112 238 0
-112 240 0
-109 133 113 85 0
-109 133 113 105 0
-109 133 85 105 0
-109 113 85 105 0
-110 134 114 86 0
-110 134 114 106 0
-110 134 86 106 0
-110 114 86 106 0
-111 135 115 87 0
-111 135 115 107 0
-111 135 87 107 0
-111 115 87 107 0
-112 136 116 88 0
-112 136 116 108 0
-112 136 88 108 0
-112 116 88 108 0
-109 -133 -113 -85 0
-109 -133 -113 -105 0
-109 -133 -85 -105 0
-109 -113 -85 -105 0
-110 -134 -114 -86 0
-110 -134 -114 -106 0
-110 -134 -86 -106 0
-110 -114 -86 -106 0
-111 -135 -115 -87 0
-111 -135 -115 -107 0
-111 -135 -87 -107 0
-111 -115 -87 -107 0
-112 -136 -116 -88 0
-112 -136 -116 -108 0
-112 -136 -88 -108 0
-112 -116 -88 -108 0
113 114 115 116 0
-241 -242 0
-243 -244 0
-113 241 0
-113 243 0
-114 241 0
-114 244 0
-115 242 0
-115 243 0
-116 242 0
-116 244 0
-113 137 117 89 0
-113 137 117 109 0
-113 137 89 109 0
-113 117 89 109 0
-114 138 118 90 0
-114 138 118 110 0
-114 138 90 110 0
-114 118 90 110 0
-115 139 119 91 0
-115 139 119 111 0
-115 139 91 111 0
-115 119 91 111 0
-116 140 120 92 0
-116 140 120 112 0
-116 140 92 112 0
-116 120 92 112 0
-113 -137 -117 -89 0
-113 -137 -117 -109 0
-113 -137 -89 -109 0
-113 -117 -89 -109 0
-114 -138 -118 -90 0
-114 -138 -118 -110 0
-114 -138 -90 -110 0
-114 -118 -90 -110 0
-115 -139 -119 -91 0
-115 -139 -119 -111 0
-115 -139 -91 -111 0
-115 -119 -91 -111 0
-116 -140 -120 -92 0
-116 -140 -120 -112 0
-116 -140 -92 -112 0
-116 -120 -92 -112 0
117 118 119 120 0
-245 -246 0
-247 -248 0
-117 245 0
-117 247 0
-118 245 0
-118 248 0
-119 246 0
-119 247 0
-120 246 0
-120 248 0
-117 141 113 0
-117 141 93 0
-117 113 93 0
-118 142 114 0
-118 142 94 0
-118 114 94 0
-119 143 115 0
-119 143 95 0
-119 115 95 0
-120 144 116 0
-120 144 96 0
-120 116 96 0
-117 -141 -113 -93 0
-118 -142 -114 -94 0
-119 -143 -115 -95 0
-120 -144 -116 -96 0
122 0
-121 0
-123 0
-124 0
98 126 0
-98 -126 0
127 0
-125 0
-126 0
-128 0
103 131 123 0
-103 -131 0
-103 -123 0
-131 -123 0
129 130 131 132 0
-249 -250 0
-251 -252 0
-129 249 0
-129 251 0
-130 249 0
-130 252 0
-131 250 0
-131 251 0
-132 250 0
-132 252 0
-129 105 133 0
-129 105 125 0
-129 133 125 0
-130 106 134 0
-130 106 126 0
-130 134 126 0
-131 107 135 0
-131 107 127 0
-131 135 127 0
-132 108 136 0
-132 108 128 0
-132 136 128 0
-129 -105 -133 -125 0
-130 -106 -134 -126 0
-131 -107 -135 -127 0
-132 -108 -136 -128 0
133 134 135 136 0
-253 -254 0
-255 -256 0
-133 253 0
-133 255 0
-134 253 0
-134 256 0
-135 254 0
-135 255 0
-136 254 0
-136 256 0
-133 109 137 0
-133 109 129 0
-133 137 129 0
-134 110 138 0
-134 110 130 0
-134 138 130 0
-135 111 139 0
-135 111 131 0
-135 139 131 0
-136 112 140 0
-136 112 132 0
-136 140 132 0
-133 -109 -137 -129 0
-134 -110 -138 -130 0
-135 -111 -139 -131 0
-136 -112 -140 -132 0
140 0
-137 0
-138 0
-139 0
116 144 136 0
-116 -144 0
-116 -136 0
-144 -136 0
143 0
-141 0
-142 0
-144 0
119 139 0
-119 -139 0
25 29 37 41 45 0
49 53 57 61 65 69 0
5 29 53 77 101 0
6 30 54 78 102 0
11 59 131 0
15 39 63 87 111 135 0
19 43 67 91 115 0
52 56 60 64 68 72 0
76 80 88 92 96 0
100 104 112 116 120 0
16 40 64 88 112 136 0